\ENCODING=ISO-8859-1
\Problem name: miqpex1

Minimize
 obj1: [ 0.0277777777777778 x00 ^2 + 0.0277777777777778 x01 ^2
       + 0.0277777777777778 x02 ^2 + 0.0277777777777778 x12 ^2
       + 0.0277777777777778 x13 ^2 + 0.0277777777777778 x14 ^2
       + 0.0277777777777778 x24 ^2 + 0.0277777777777778 x25 ^2
       + 0.0277777777777778 x26 ^2 + 0.0277777777777778 x36 ^2
       + 0.0277777777777778 x37 ^2 + 0.0277777777777778 x38 ^2
       + 0.0277777777777778 x48 ^2 + 0.0277777777777778 x49 ^2
       + 0.0277777777777778 x50 ^2 + 0.0277777777777778 x60 ^2
       + 0.0277777777777778 x61 ^2 + 0.0277777777777778 x62 ^2 ] / 2
Subject To
 dummy0:  x09  = 1
 dummy1:  x06  = 0
 dummy2:  2 x03  = 0
 dummy3:  x10  = 0
 dummy4:  x07  = 0
 dummy5:  2 x04  = 0
 dummy6:  x11  = -1
 dummy7:  x08  = 0
 dummy8:  2 x05  = 0
 dummy9:  x60 + x63 + x66 + x69  = 8
 dummy10: 3 x60 + 2 x63 + x66  = 0
 dummy11: 6 x60 + 2 x63  = 0
 dummy12: x61 + x64 + x67 + x70  = 18
 dummy13: 3 x61 + 2 x64 + x67  = 0
 dummy14: 6 x61 + 2 x64  = 0
 dummy15: x62 + x65 + x68 + x71  = 5
 dummy16: 3 x62 + 2 x65 + x68  = 5
 dummy17: 6 x62 + 2 x65  = 0
 dummy18: x00 + x03 + x06 + x09 - x21  = 0
 dummy19: 3 x00 + 2 x03 + x06 - x18  = 0
 dummy20: 6 x00 + 2 x03 - 2 x15  = 0
 dummy21: x01 + x04 + x07 + x10 - x22  = 0
 dummy22: 3 x01 + 2 x04 + x07 - x19  = 0
 dummy23: 6 x01 + 2 x04 - 2 x16  = 0
 dummy24: x02 + x05 + x08 + x11 - x23  = 0
 dummy25: 3 x02 + 2 x05 + x08 - x20  = 0
 dummy26: 6 x02 + 2 x05 - 2 x17  = 0
 dummy27: x12 + x15 + x18 + x21 - x33  = 0
 dummy28: 3 x12 + 2 x15 + x18 - x30  = 0
 dummy29: 6 x12 + 2 x15 - 2 x27  = 0
 dummy30: x13 + x16 + x19 + x22 - x34  = 0
 dummy31: 3 x13 + 2 x16 + x19 - x31  = 0
 dummy32: 6 x13 + 2 x16 - 2 x28  = 0
 dummy33: x14 + x17 + x20 + x23 - x35  = 0
 dummy34: 3 x14 + 2 x17 + x20 - x32  = 0
 dummy35: 6 x14 + 2 x17 - 2 x29  = 0
 dummy36: x24 + x27 + x30 + x33 - x45  = 0
 dummy37: 3 x24 + 2 x27 + x30 - x42  = 0
 dummy38: 6 x24 + 2 x27 - 2 x39  = 0
 dummy39: x25 + x28 + x31 + x34 - x46  = 0
 dummy40: 3 x25 + 2 x28 + x31 - x43  = 0
 dummy41: 6 x25 + 2 x28 - 2 x40  = 0
 dummy42: x26 + x29 + x32 + x35 - x47  = 0
 dummy43: 3 x26 + 2 x29 + x32 - x44  = 0
 dummy44: 6 x26 + 2 x29 - 2 x41  = 0
 dummy45: x36 + x39 + x42 + x45 - x57  = 0
 dummy46: 3 x36 + 2 x39 + x42 - x54  = 0
 dummy47: 6 x36 + 2 x39 - 2 x51  = 0
 dummy48: x37 + x40 + x43 + x46 - x58  = 0
 dummy49: 3 x37 + 2 x40 + x43 - x55  = 0
 dummy50: 6 x37 + 2 x40 - 2 x52  = 0
 dummy51: x38 + x41 + x44 + x47 - x59  = 0
 dummy52: 3 x38 + 2 x41 + x44 - x56  = 0
 dummy53: 6 x38 + 2 x41 - 2 x53  = 0
 dummy54: x48 + x51 + x54 + x57 - x69  = 0
 dummy55: 3 x48 + 2 x51 + x54 - x66  = 0
 dummy56: 6 x48 + 2 x51 - 2 x63  = 0
 dummy57: x49 + x52 + x55 + x58 - x70  = 0
 dummy58: 3 x49 + 2 x52 + x55 - x67  = 0
 dummy59: 6 x49 + 2 x52 - 2 x64  = 0
 dummy60: x50 + x53 + x56 + x59 - x71  = 0
 dummy61: 3 x50 + 2 x53 + x56 - x68  = 0
 dummy62: 6 x50 + 2 x53 - 2 x65  = 0
Bounds
-100 <= x00 <= 100
-100 <= x01 <= 100
-100 <= x02 <= 100
-100 <= x03 <= 100
-100 <= x04 <= 100
-100 <= x05 <= 100
-100 <= x06 <= 100
-100 <= x07 <= 100
-100 <= x08 <= 100
-100 <= x09 <= 100
-100 <= x10 <= 100
-100 <= x11 <= 100
-100 <= x12 <= 100
-100 <= x13 <= 100
-100 <= x14 <= 100
-100 <= x15 <= 100
-100 <= x16 <= 100
-100 <= x17 <= 100
-100 <= x18 <= 100
-100 <= x19 <= 100
-100 <= x20 <= 100
-100 <= x21 <= 100
-100 <= x22 <= 100
-100 <= x23 <= 100
-100 <= x24 <= 100
-100 <= x25 <= 100
-100 <= x26 <= 100
-100 <= x27 <= 100
-100 <= x28 <= 100
-100 <= x29 <= 100
-100 <= x30 <= 100
-100 <= x31 <= 100
-100 <= x32 <= 100
-100 <= x33 <= 100
-100 <= x34 <= 100
-100 <= x35 <= 100
-100 <= x36 <= 100
-100 <= x37 <= 100
-100 <= x38 <= 100
-100 <= x39 <= 100
-100 <= x40 <= 100
-100 <= x41 <= 100
-100 <= x42 <= 100
-100 <= x43 <= 100
-100 <= x44 <= 100
-100 <= x45 <= 100
-100 <= x46 <= 100
-100 <= x47 <= 100
-100 <= x48 <= 100
-100 <= x49 <= 100
-100 <= x50 <= 100
-100 <= x51 <= 100
-100 <= x52 <= 100
-100 <= x53 <= 100
-100 <= x54 <= 100
-100 <= x55 <= 100
-100 <= x56 <= 100
-100 <= x57 <= 100
-100 <= x58 <= 100
-100 <= x59 <= 100
-100 <= x60 <= 100
-100 <= x61 <= 100
-100 <= x62 <= 100
-100 <= x63 <= 100
-100 <= x64 <= 100
-100 <= x65 <= 100
-100 <= x66 <= 100
-100 <= x67 <= 100
-100 <= x68 <= 100
-100 <= x69 <= 100
-100 <= x70 <= 100
-100 <= x71 <= 100
End
